Geographic Exponential Decay
80 246 130 155 263 177 21 156 124 256 205 6 70 50 248 170 278 68 76 182 110 200 108 196 228 105 232 67 16 193 314 299 305 78 55 312 179 257 284 216 136 241 222 164 253 0 223 186 34 102 254 311 24 252 217 146 46 122 109 296 25 267 90 295 294 31 206 250 161 209 266 153 142 71 313 131 10 128 204 283 75
p edge 320 665
e 0 27 99.0
e 0 32 27.0
e 0 205 14.0
e 0 9 82.0
e 0 35 8.0
e 0 274 99.0
e 0 311 80.0
e 0 282 53.0
e 0 54 5.0
e 1 112 2.0
e 2 299 59.0
e 3 130 1.0
e 4 12 1.0
e 5 97 1.0
e 6 42 88.0
e 6 298 95.0
e 6 201 87.0
e 6 26 54.0
e 6 260 26.0
e 6 293 16.0
e 6 7 70.0
e 6 149 21.0
e 6 130 86.0
e 8 119 6.0
e 8 99 11.0
e 9 147 7.0
e 10 18 42.0
e 10 220 76.0
e 10 54 61.0
e 10 44 79.0
e 10 191 73.0
e 10 292 68.0
e 10 297 11.0
e 10 53 52.0
e 10 263 90.0
e 11 147 23.0
e 13 295 85.0
e 13 139 8.0
e 14 263 29.0
e 15 88 3.0
e 16 206 92.0
e 16 85 46.0
e 16 210 45.0
e 16 293 80.0
e 16 104 90.0
e 16 86 69.0
e 16 138 49.0
e 16 258 28.0
e 16 183 15.0
e 17 230 1.0
e 19 216 42.0
e 20 5 1.0
e 21 218 81.0
e 21 300 27.0
e 21 177 15.0
e 21 138 16.0
e 21 211 40.0
e 21 212 44.0
e 21 243 71.0
e 21 279 11.0
e 21 249 45.0
e 22 76 32.0
e 23 301 1.0
e 24 275 19.0
e 24 232 55.0
e 24 239 75.0
e 24 254 84.0
e 24 154 33.0
e 24 25 80.0
e 24 240 2.0
e 24 17 69.0
e 24 273 77.0
e 25 313 37.0
e 25 144 13.0
e 25 131 71.0
e 25 188 63.0
e 25 40 21.0
e 25 149 35.0
e 25 4 1.0
e 25 23 66.0
e 28 2 2.0
e 29 43 5.0
e 30 224 5.0
e 31 113 84.0
e 31 50 27.0
e 31 63 82.0
e 31 118 55.0
e 31 70 55.0
e 31 232 71.0
e 31 9 62.0
e 31 290 10.0
e 31 10 89.0
e 33 281 14.0
e 33 168 19.0
e 33 230 14.0
e 34 7 12.0
e 34 287 5.0
e 34 189 2.0
e 34 184 14.0
e 34 243 11.0
e 34 129 35.0
e 34 169 98.0
e 34 276 42.0
e 34 286 92.0
e 36 254 82.0
e 37 255 3.0
e 38 20 2.0
e 39 243 4.0
e 41 161 11.0
e 45 283 13.0
e 46 114 83.0
e 46 90 9.0
e 46 318 28.0
e 46 259 29.0
e 46 75 62.0
e 46 70 40.0
e 46 163 31.0
e 46 229 73.0
e 46 260 93.0
e 47 233 5.0
e 48 274 3.0
e 49 270 5.0
e 50 6 77.0
e 50 22 45.0
e 50 84 43.0
e 50 157 100.0
e 50 96 74.0
e 50 184 11.0
e 50 115 74.0
e 50 186 25.0
e 51 185 1.0
e 52 205 19.0
e 52 302 6.0
e 55 101 6.0
e 55 256 34.0
e 55 261 53.0
e 55 237 39.0
e 55 159 45.0
e 55 307 87.0
e 55 208 62.0
e 55 156 60.0
e 55 209 39.0
e 56 237 5.0
e 57 171 1.0
e 58 309 1.0
e 59 266 99.0
e 60 62 1.0
e 61 316 6.0
e 64 142 17.0
e 65 85 3.0
e 66 212 3.0
e 67 131 54.0
e 67 124 41.0
e 67 226 48.0
e 67 221 28.0
e 67 299 88.0
e 67 92 8.0
e 67 302 2.0
e 67 163 28.0
e 67 41 61.0
e 68 244 38.0
e 68 265 16.0
e 68 298 71.0
e 68 65 64.0
e 68 152 47.0
e 68 154 34.0
e 68 135 86.0
e 68 79 44.0
e 68 318 81.0
e 69 182 91.0
e 70 275 2.0
e 70 69 78.0
e 70 213 74.0
e 70 311 32.0
e 70 273 77.0
e 70 147 10.0
e 70 276 2.0
e 71 21 97.0
e 71 253 14.0
e 71 83 3.0
e 71 169 62.0
e 71 249 15.0
e 71 27 23.0
e 71 11 40.0
e 71 211 21.0
e 71 63 70.0
e 72 25 67.0
e 73 263 53.0
e 73 92 5.0
e 73 66 24.0
e 74 84 1.0
e 75 123 5.0
e 75 49 9.0
e 75 248 33.0
e 75 286 84.0
e 75 91 12.0
e 75 67 73.0
e 75 24 5.0
e 75 219 97.0
e 76 254 89.0
e 76 175 60.0
e 76 281 100.0
e 76 263 94.0
e 76 152 62.0
e 76 132 17.0
e 76 3 76.0
e 76 219 27.0
e 77 8 9.0
e 78 109 98.0
e 78 190 92.0
e 78 185 73.0
e 78 73 31.0
e 78 235 82.0
e 78 208 39.0
e 78 159 72.0
e 78 141 44.0
e 78 165 22.0
e 80 304 8.0
e 80 176 9.0
e 81 12 2.0
e 82 288 2.0
e 87 252 85.0
e 89 26 3.0
e 90 265 86.0
e 90 98 72.0
e 90 120 1.0
e 90 258 59.0
e 90 314 80.0
e 90 16 64.0
e 90 231 7.0
e 90 203 59.0
e 93 94 1.0
e 95 19 5.0
e 99 112 3.0
e 100 228 18.0
e 100 13 16.0
e 100 277 10.0
e 102 86 33.0
e 102 111 44.0
e 102 64 44.0
e 102 269 56.0
e 102 51 33.0
e 102 104 25.0
e 102 113 26.0
e 102 94 83.0
e 102 207 2.0
e 103 299 45.0
e 105 143 86.0
e 105 68 94.0
e 105 70 14.0
e 105 303 66.0
e 105 74 43.0
e 105 299 62.0
e 105 87 66.0
e 105 28 49.0
e 105 106 85.0
e 107 277 2.0
e 108 189 13.0
e 108 264 63.0
e 108 221 51.0
e 108 14 11.0
e 108 107 68.0
e 108 120 10.0
e 108 119 25.0
e 108 71 96.0
e 108 294 62.0
e 109 15 43.0
e 109 319 18.0
e 109 33 55.0
e 109 196 22.0
e 109 171 43.0
e 109 0 35.0
e 109 231 91.0
e 109 257 50.0
e 110 276 25.0
e 110 98 75.0
e 110 246 31.0
e 110 75 73.0
e 110 232 61.0
e 110 181 70.0
e 110 220 77.0
e 110 88 81.0
e 110 108 40.0
e 111 285 50.0
e 111 266 56.0
e 116 186 41.0
e 117 79 5.0
e 117 135 23.0
e 121 238 2.0
e 122 106 4.0
e 122 191 20.0
e 122 304 49.0
e 122 204 47.0
e 122 50 3.0
e 122 114 28.0
e 122 89 98.0
e 122 259 38.0
e 122 240 37.0
e 124 222 74.0
e 124 52 64.0
e 124 29 3.0
e 124 238 43.0
e 124 282 41.0
e 124 160 91.0
e 124 190 70.0
e 124 72 95.0
e 125 261 3.0
e 126 276 9.0
e 127 247 1.0
e 128 267 14.0
e 128 80 4.0
e 128 81 73.0
e 128 121 71.0
e 128 191 35.0
e 128 300 68.0
e 128 110 6.0
e 128 18 30.0
e 128 145 43.0
e 130 278 72.0
e 130 268 67.0
e 130 220 29.0
e 130 1 22.0
e 130 90 1.0
e 130 91 11.0
e 130 296 60.0
e 131 30 37.0
e 131 217 52.0
e 131 269 50.0
e 131 93 25.0
e 131 172 14.0
e 131 314 58.0
e 131 76 91.0
e 132 239 23.0
e 133 311 40.0
e 134 301 10.0
e 134 77 23.0
e 134 128 63.0
e 135 95 12.0
e 136 209 36.0
e 136 215 63.0
e 136 207 69.0
e 136 284 98.0
e 136 145 63.0
e 136 101 38.0
e 136 31 92.0
e 136 252 92.0
e 136 228 24.0
e 137 78 72.0
e 140 200 58.0
e 142 223 55.0
e 142 204 86.0
e 142 122 16.0
e 142 158 95.0
e 142 262 88.0
e 142 271 100.0
e 142 310 76.0
e 142 193 14.0
e 146 125 83.0
e 146 32 86.0
e 146 305 23.0
e 146 131 97.0
e 146 111 64.0
e 146 115 27.0
e 146 270 6.0
e 146 34 51.0
e 146 172 57.0
e 148 35 1.0
e 150 222 3.0
e 151 36 4.0
e 151 120 9.0
e 153 167 86.0
e 153 37 70.0
e 153 233 80.0
e 153 38 61.0
e 153 39 10.0
e 153 278 70.0
e 153 174 92.0
e 153 40 14.0
e 153 116 82.0
e 154 228 49.0
e 155 236 11.0
e 155 180 77.0
e 155 299 33.0
e 155 215 14.0
e 155 308 94.0
e 155 263 2.0
e 155 173 54.0
e 155 42 94.0
e 155 294 67.0
e 156 183 13.0
e 156 246 28.0
e 156 204 24.0
e 156 249 69.0
e 156 82 8.0
e 156 43 92.0
e 156 44 70.0
e 156 147 40.0
e 161 135 75.0
e 161 216 13.0
e 161 167 86.0
e 161 96 92.0
e 161 129 44.0
e 161 45 27.0
e 161 285 10.0
e 161 83 7.0
e 162 59 4.0
e 164 285 79.0
e 164 46 3.0
e 164 182 19.0
e 164 266 60.0
e 164 179 26.0
e 164 297 91.0
e 164 47 66.0
e 164 315 95.0
e 164 117 60.0
e 166 48 4.0
e 170 180 55.0
e 170 187 30.0
e 170 136 95.0
e 170 185 6.0
e 170 123 96.0
e 170 127 53.0
e 170 242 32.0
e 170 97 99.0
e 170 314 86.0
e 177 144 65.0
e 177 268 94.0
e 177 207 77.0
e 177 179 79.0
e 177 262 51.0
e 177 99 89.0
e 177 145 6.0
e 177 150 25.0
e 178 222 56.0
e 179 254 43.0
e 179 248 89.0
e 179 53 75.0
e 179 278 12.0
e 179 249 27.0
e 179 170 21.0
e 179 228 85.0
e 182 294 71.0
e 182 60 5.0
e 182 148 75.0
e 182 153 95.0
e 182 175 55.0
e 182 54 1.0
e 182 55 7.0
e 186 160 23.0
e 186 178 57.0
e 186 264 47.0
e 186 100 46.0
e 186 56 13.0
e 186 57 47.0
e 186 195 16.0
e 192 58 1.0
e 193 317 77.0
e 193 102 62.0
e 193 186 18.0
e 193 250 80.0
e 193 278 60.0
e 193 232 85.0
e 193 228 72.0
e 193 143 66.0
e 194 103 2.0
e 196 61 42.0
e 196 146 24.0
e 196 151 41.0
e 196 124 27.0
e 196 305 50.0
e 196 62 36.0
e 196 278 37.0
e 196 279 70.0
e 197 209 25.0
e 197 291 10.0
e 198 179 31.0
e 199 176 2.0
e 200 314 38.0
e 200 105 76.0
e 200 233 75.0
e 200 154 99.0
e 200 109 71.0
e 200 307 31.0
e 200 118 53.0
e 200 126 60.0
e 202 192 4.0
e 204 130 4.0
e 204 132 60.0
e 204 141 23.0
e 204 248 86.0
e 204 225 1.0
e 204 133 22.0
e 205 155 1.0
e 205 134 59.0
e 205 137 7.0
e 205 278 97.0
e 205 244 72.0
e 205 285 67.0
e 205 139 9.0
e 206 161 18.0
e 206 258 98.0
e 206 140 72.0
e 206 241 69.0
e 206 156 41.0
e 206 142 88.0
e 206 193 17.0
e 206 157 41.0
e 209 158 43.0
e 209 234 28.0
e 209 251 39.0
e 209 162 39.0
e 209 164 3.0
e 209 266 54.0
e 210 314 1.0
e 214 206 41.0
e 216 278 80.0
e 216 165 74.0
e 216 166 43.0
e 216 200 49.0
e 216 294 47.0
e 216 315 70.0
e 216 201 100.0
e 217 168 97.0
e 217 173 30.0
e 217 174 1.0
e 217 177 5.0
e 217 202 97.0
e 217 181 34.0
e 217 182 26.0
e 217 187 82.0
e 222 188 10.0
e 222 209 34.0
e 222 194 67.0
e 222 195 21.0
e 222 291 58.0
e 222 196 2.0
e 223 197 24.0
e 223 198 22.0
e 223 199 53.0
e 223 203 28.0
e 223 204 79.0
e 223 205 13.0
e 223 278 47.0
e 223 287 7.0
e 227 245 1.0
e 228 210 7.0
e 228 213 38.0
e 228 214 60.0
e 228 263 8.0
e 229 308 2.0
e 229 227 17.0
e 232 216 49.0
e 232 217 44.0
e 232 218 30.0
e 232 278 90.0
e 232 281 13.0
e 236 266 8.0
e 239 222 84.0
e 241 223 9.0
e 241 224 55.0
e 241 299 54.0
e 241 225 84.0
e 241 226 91.0
e 241 248 64.0
e 241 228 27.0
e 241 229 84.0
e 246 232 56.0
e 246 234 29.0
e 246 235 63.0
e 246 236 7.0
e 246 239 8.0
e 246 292 75.0
e 246 278 14.0
e 248 242 74.0
e 248 303 78.0
e 248 244 76.0
e 248 245 97.0
e 248 246 58.0
e 249 241 87.0
e 250 273 21.0
e 250 247 15.0
e 250 248 54.0
e 250 249 14.0
e 250 251 22.0
e 250 252 46.0
e 250 253 58.0
e 250 254 13.0
e 252 266 11.0
e 252 251 57.0
e 252 253 27.0
e 252 254 1.0
e 252 255 3.0
e 252 257 71.0
e 253 254 1.0
e 253 256 32.0
e 253 257 57.0
e 253 263 56.0
e 253 266 15.0
e 253 267 80.0
e 254 256 5.0
e 254 257 53.0
e 256 250 73.0
e 256 296 84.0
e 256 252 50.0
e 256 257 6.0
e 256 263 73.0
e 256 266 24.0
e 257 263 25.0
e 257 266 62.0
e 257 267 88.0
e 257 271 49.0
e 267 254 88.0
e 267 256 9.0
e 267 263 60.0
e 267 266 27.0
e 267 272 35.0
e 267 280 69.0
e 283 253 21.0
e 283 257 18.0
e 283 267 88.0
e 283 272 20.0
e 283 305 52.0
e 283 280 4.0
e 283 284 52.0
e 283 285 43.0
e 284 285 21.0
e 284 288 93.0
e 284 289 12.0
e 284 290 30.0
e 284 294 83.0
e 284 295 63.0
e 284 296 45.0
e 294 312 84.0
e 294 283 83.0
e 294 289 96.0
e 294 295 48.0
e 295 308 69.0
e 295 296 24.0
e 295 299 54.0
e 295 300 13.0
e 295 305 77.0
e 295 306 60.0
e 296 294 79.0
e 296 299 57.0
e 296 305 32.0
e 296 306 77.0
e 296 308 96.0
e 299 284 8.0
e 305 299 43.0
e 305 308 42.0
e 305 309 66.0
e 305 310 98.0
e 311 295 1.0
e 311 296 61.0
e 311 305 15.0
e 311 308 33.0
e 311 312 52.0
e 311 313 53.0
e 312 313 51.0
e 312 314 41.0
e 312 316 15.0
e 312 317 99.0
e 312 319 89.0
e 313 314 65.0
e 314 311 73.0
